data/hard_9.dzn
num_nodi = 10;
ufficio_postale = 10;
dim_borsa = 14;
max_step = 40;
elenco_lettere = [6, 8, 4, 9, 5, 2, 14, 14, 5, 0];
distanze = [|0, 24, 20, 8, 5, 3, 5, 19, 5, 8
|14, 0, 5, 22, 13, 19, 20, 13, 9, 14
|12, 19, 0, 25, 13, 21, 25, 4, 13, 4
|5, 5, 4, 0, 19, 10, 5, 17, 19, 1
|10, 4, 12, 14, 0, 4, 8, 15, 25, 6
|4, 23, 13, 6, 4, 0, 20, 22, 23, 24
|12, 9, 8, 7, 23, 6, 0, 13, 8, 15
|13, 5, 1, 4, 5, 21, 23, 0, 9, 3
|10, 24, 21, 12, 17, 15, 15, 20, 0, 11
|6, 22, 16, 7, 2, 8, 2, 14, 10, 0
|];
