data/hard_9.lp
node(1..10).

ufficio_postale(10).

dim_borsa(14).

time(1..40).

lettere(1,6).
lettere(2,8).
lettere(3,4).
lettere(4,9).
lettere(5,5).
lettere(6,2).
lettere(7,14).
lettere(8,14).
lettere(9,5).
lettere(10,0).

costo_arco(1, 1, 0).
costo_arco(1, 2, 24).
costo_arco(1, 3, 20).
costo_arco(1, 4, 8).
costo_arco(1, 5, 5).
costo_arco(1, 6, 3).
costo_arco(1, 7, 5).
costo_arco(1, 8, 19).
costo_arco(1, 9, 5).
costo_arco(1, 10, 8).

costo_arco(2, 1, 14).
costo_arco(2, 2, 0).
costo_arco(2, 3, 5).
costo_arco(2, 4, 22).
costo_arco(2, 5, 13).
costo_arco(2, 6, 19).
costo_arco(2, 7, 20).
costo_arco(2, 8, 13).
costo_arco(2, 9, 9).
costo_arco(2, 10, 14).

costo_arco(3, 1, 12).
costo_arco(3, 2, 19).
costo_arco(3, 3, 0).
costo_arco(3, 4, 25).
costo_arco(3, 5, 13).
costo_arco(3, 6, 21).
costo_arco(3, 7, 25).
costo_arco(3, 8, 4).
costo_arco(3, 9, 13).
costo_arco(3, 10, 4).

costo_arco(4, 1, 5).
costo_arco(4, 2, 5).
costo_arco(4, 3, 4).
costo_arco(4, 4, 0).
costo_arco(4, 5, 19).
costo_arco(4, 6, 10).
costo_arco(4, 7, 5).
costo_arco(4, 8, 17).
costo_arco(4, 9, 19).
costo_arco(4, 10, 1).

costo_arco(5, 1, 10).
costo_arco(5, 2, 4).
costo_arco(5, 3, 12).
costo_arco(5, 4, 14).
costo_arco(5, 5, 0).
costo_arco(5, 6, 4).
costo_arco(5, 7, 8).
costo_arco(5, 8, 15).
costo_arco(5, 9, 25).
costo_arco(5, 10, 6).

costo_arco(6, 1, 4).
costo_arco(6, 2, 23).
costo_arco(6, 3, 13).
costo_arco(6, 4, 6).
costo_arco(6, 5, 4).
costo_arco(6, 6, 0).
costo_arco(6, 7, 20).
costo_arco(6, 8, 22).
costo_arco(6, 9, 23).
costo_arco(6, 10, 24).

costo_arco(7, 1, 12).
costo_arco(7, 2, 9).
costo_arco(7, 3, 8).
costo_arco(7, 4, 7).
costo_arco(7, 5, 23).
costo_arco(7, 6, 6).
costo_arco(7, 7, 0).
costo_arco(7, 8, 13).
costo_arco(7, 9, 8).
costo_arco(7, 10, 15).

costo_arco(8, 1, 13).
costo_arco(8, 2, 5).
costo_arco(8, 3, 1).
costo_arco(8, 4, 4).
costo_arco(8, 5, 5).
costo_arco(8, 6, 21).
costo_arco(8, 7, 23).
costo_arco(8, 8, 0).
costo_arco(8, 9, 9).
costo_arco(8, 10, 3).

costo_arco(9, 1, 10).
costo_arco(9, 2, 24).
costo_arco(9, 3, 21).
costo_arco(9, 4, 12).
costo_arco(9, 5, 17).
costo_arco(9, 6, 15).
costo_arco(9, 7, 15).
costo_arco(9, 8, 20).
costo_arco(9, 9, 0).
costo_arco(9, 10, 11).

costo_arco(10, 1, 6).
costo_arco(10, 2, 22).
costo_arco(10, 3, 16).
costo_arco(10, 4, 7).
costo_arco(10, 5, 2).
costo_arco(10, 6, 8).
costo_arco(10, 7, 2).
costo_arco(10, 8, 14).
costo_arco(10, 9, 10).
costo_arco(10, 10, 0).

